Set parameter TokenServer to value "hpc-licenses.hpcc.usc.edu"
Set parameter TimeLimit to value 3600
Gurobi Optimizer version 9.5.1 build v9.5.1rc2 (linux64)
Thread count: 20 physical cores, 20 logical processors, using up to 20 threads
Optimize a model with 6007 rows, 4529 columns and 24534 nonzeros
Model fingerprint: 0x5f06fc74
Variable types: 4506 continuous, 23 integer (23 binary)
Coefficient statistics:
  Matrix range     [1e+00, 1e+00]
  Objective range  [3e-03, 1e+00]
  Bounds range     [1e+00, 1e+00]
  RHS range        [1e+00, 1e+02]
Found heuristic solution: objective 219.7774108
Presolve removed 1520 rows and 1515 columns
Presolve time: 0.08s
Presolved: 4487 rows, 3014 columns, 21975 nonzeros
Variable types: 2994 continuous, 20 integer (20 binary)

Root relaxation: objective 2.332016e+02, 2694 iterations, 0.14 seconds (0.15 work units)

    Nodes    |    Current Node    |     Objective Bounds      |     Work
 Expl Unexpl |  Obj  Depth IntInf | Incumbent    BestBd   Gap | It/Node Time

     0     0  233.20164    0    2  219.77741  233.20164  6.11%     -    0s
H    0     0                     232.5304947  233.20164  0.29%     -    0s
     0     0  233.17364    0    4  232.53049  233.17364  0.28%     -    0s
     0     0  233.17364    0    2  232.53049  233.17364  0.28%     -    0s
     0     0  233.16417    0    4  232.53049  233.16417  0.27%     -    0s
     0     0  232.95906    0    4  232.53049  232.95906  0.18%     -    1s
     0     0  232.95418    0    4  232.53049  232.95418  0.18%     -    1s
     0     0  232.78858    0    4  232.53049  232.78858  0.11%     -    2s
     0     0  232.78858    0    2  232.53049  232.78858  0.11%     -    2s
     0     0  232.53072    0    3  232.53049  232.53072  0.00%     -    2s

Cutting planes:
  Gomory: 2
  MIR: 1

Explored 1 nodes (6728 simplex iterations) in 2.59 seconds (1.00 work units)
Thread count was 20 (of 20 available processors)

Solution count 2: 232.53 219.777 

Optimal solution found (tolerance 1.00e-04)
Best objective 2.325304947441e+02, best bound 2.325307173759e+02, gap 0.0001%



#########node  1
V1.7
#########node  2
0.11184210526315787,0.888157894736842
#########node  3
1.0,0.0


Total Solving Time 2.9256911277770996
obj value 232.53049474410906
Policy Regret train (Sum) 4.147362670960024
Best Treatment Found train (%) 70.19999999999999
treatment classification acc train (%) 35.6
Policy Regret test (Sum) 63.74597884426457
Best Treatment Found test (%) 73.06
treatment classification acc test (%) 34.760000000000005
